p wcnf 1000 200 2
1 1 0
1 2 0
1 3 0
1 4 0
1 5 0
1 6 0
1 7 0
1 8 0
1 9 0
2 10 0
2 11 0
2 12 0
1 2 2 2 3 3 3 3 3 3 3 3 0
1 3 3 3 4 4 4 4 4 4 4 4 0
1 4 4 4 4 4 5 5 5 5 5 5 0
1 5 5 5 5 5 5 5 5 6 6 6 0
1 6 6 6 6 6 6 7 7 7 7 7 0
1 7 7 8 8 8 8 8 8 9 9 9 0
1 9 9 9 9 9 10 10 10 10 10 10 0
1 10 10 10 11 11 11 11 11 11 11 11 0
1 11 11 12 12 12 12 12 12 12 12 12 0
1 13 13 13 13 13 13 13 13 13 13 13 0
1 13 13 14 14 14 14 14 14 14 14 15 0
1 15 15 15 15 15 15 15 16 16 16 16 0
1 16 16 16 16 16 17 17 17 17 17 17 0
1 17 17 18 18 18 18 18 18 18 18 18 0
1 18 18 19 19 19 19 19 19 19 19 20 0
1 20 20 20 20 20 20 21 21 21 21 21 0
1 21 21 21 22 22 22 22 22 22 22 22 0
1 23 23 23 23 23 23 23 23 23 23 23 0
1 23 23 23 23 24 24 24 24 24 24 24 0
1 24 25 25 25 25 25 25 25 26 26 26 0
1 26 26 26 26 26 26 27 27 27 27 27 0
1 27 27 27 27 27 27 28 28 28 28 28 0
1 29 29 29 29 29 29 30 30 30 30 30 0
1 30 30 31 31 31 31 31 32 32 32 32 0
1 32 32 32 32 33 33 33 33 33 33 33 0
1 33 33 33 34 34 34 34 34 34 34 34 0
1 34 34 34 34 34 34 34 34 34 34 34 0
1 35 35 35 35 35 36 36 36 36 36 36 0
1 36 36 36 36 36 36 36 36 36 37 37 0
1 37 37 37 37 37 37 37 37 37 37 37 0
1 37 37 38 38 38 38 38 38 38 38 38 0
1 39 39 39 39 39 39 39 39 39 40 40 0
1 40 40 40 40 41 41 41 41 41 41 41 0
1 41 41 41 41 41 41 42 42 42 42 42 0
1 42 42 42 42 42 42 42 42 42 42 42 0
1 43 43 43 43 43 43 43 43 43 43 44 0
1 44 44 44 44 44 45 45 45 45 45 45 0
1 45 45 45 46 46 46 46 46 46 46 46 0
1 46 46 46 46 46 47 47 47 47 48 48 0
1 48 48 48 48 48 48 48 48 48 48 48 0
1 48 49 49 49 49 49 49 50 50 50 50 0
1 50 50 50 50 50 50 50 51 51 51 51 0
1 51 51 51 51 51 51 51 51 52 52 52 0
1 52 52 52 52 52 53 53 53 53 53 53 0
1 53 53 54 54 54 54 54 54 54 54 54 0
1 54 54 54 54 55 55 55 55 55 55 55 0
1 55 55 56 56 56 56 56 56 56 56 56 0
1 57 57 57 57 57 57 57 57 57 57 57 0
1 58 58 58 58 58 58 58 58 58 58 58 0
1 59 59 59 59 59 59 59 59 59 59 59 0
1 59 59 60 60 60 60 60 60 60 60 60 0
1 60 60 60 61 61 61 61 61 61 61 61 0
1 61 61 61 62 62 62 62 62 62 62 62 0
1 63 63 63 63 63 63 64 64 64 64 64 0
1 64 64 64 65 65 65 65 65 65 65 66 0
1 66 66 66 66 66 66 66 66 66 67 67 0
1 67 67 67 67 67 67 67 67 67 67 67 0
1 67 67 67 68 68 68 68 68 68 69 69 0
1 69 69 69 69 69 70 70 70 70 71 71 0
1 71 71 71 71 71 71 71 71 71 71 72 0
1 72 72 72 72 72 72 72 72 72 73 73 0
1 74 74 74 74 74 75 75 75 75 75 75 0
1 75 75 75 75 75 76 76 76 76 76 76 0
1 76 76 77 77 77 77 77 77 77 77 77 0
1 78 78 78 78 78 78 79 79 79 79 79 0
1 79 79 79 80 80 80 80 80 80 80 80 0
1 81 81 81 81 81 81 81 81 81 81 82 0
1 82 82 82 82 82 83 83 83 83 83 83 0
1 83 83 83 83 83 84 84 84 84 84 85 0
1 85 85 85 85 85 85 85 85 85 85 86 0
1 86 86 86 86 86 86 86 86 87 87 87 0
1 87 87 87 87 87 87 87 87 87 87 88 0
1 88 88 88 88 88 88 89 89 89 89 89 0
1 89 89 89 90 90 90 90 90 90 91 91 0
1 91 91 91 91 91 91 92 92 92 92 92 0
1 92 92 92 92 92 92 93 93 93 93 93 0
1 93 93 93 93 94 94 94 94 94 94 94 0
1 94 94 94 94 94 94 94 95 95 95 95 0
1 95 95 95 95 95 95 96 96 96 96 96 0
1 96 96 96 96 96 96 97 97 97 97 97 0
1 97 98 98 98 98 98 98 98 99 99 99 0
1 99 99 99 99 99 99 99 100 100 100 100 0
1 100 100 100 0
1  0
1 113 164 270 309 320 381 404 410 433 452 491 0
1 639 844 855 935 970 0
1  0
1 17 59 184 238 254 355 419 423 444 448 612 0
1 677 685 688 707 757 844 948 951 0
1  0
1 273 284 294 346 434 446 511 587 719 746 753 0
1 923 957 975 0
1  0
1 28 165 218 317 340 405 407 447 463 542 662 0
1 920 966 987 0
1  0
1 70 104 124 163 203 289 363 381 603 634 657 0
1 862 886 950 993 0
1  0
1 178 206 210 234 254 340 344 370 380 406 412 0
1 704 745 767 910 914 0
1  0
1 22 146 220 223 238 239 309 429 477 535 557 0
1 643 682 796 799 801 866 880 908 982 0
1  0
1 33 68 112 187 245 285 343 367 391 408 418 0
1 535 569 575 631 632 662 705 747 770 773 775 0
1 856 864 910 951 976 997 0
1  0
1 127 185 294 347 440 473 504 520 527 590 603 0
1 884 895 939 0
1  0
1 174 290 343 350 397 456 488 523 536 665 766 0
1 847 852 871 874 877 959 987 996 1000 0
1  0
1 54 69 103 266 484 535 568 613 621 630 652 0
1 774 869 0
1  0
1 91 155 163 207 275 329 348 429 435 438 488 0
1 560 562 608 719 734 761 788 804 828 867 871 0
1 975 0
1  0
1 163 202 206 234 291 309 319 325 403 405 482 0
1 656 685 707 731 843 894 938 952 992 0
1  0
1 173 183 191 280 461 568 577 605 631 791 812 0
1 836 963 0
1  0
1 113 125 140 298 321 354 379 434 455 516 540 0
1 604 616 667 791 819 852 854 867 929 0
1  0
1 65 145 247 259 260 298 307 339 359 416 437 0
1 527 626 803 909 971 983 0
1  0
1 30 123 345 347 427 467 527 539 544 560 561 0
1 687 841 863 905 951 0
1  0
1 77 103 142 235 306 307 383 393 488 516 532 0
1 568 602 653 659 667 689 694 701 702 885 886 0
1  0
1  0
1 64 91 155 213 218 226 256 374 444 502 563 0
1 802 811 824 825 919 936 964 970 993 0
1  0
1 104 115 203 299 344 371 389 392 424 434 435 0
1 476 568 619 646 659 676 701 752 857 864 984 0
1  0
1 136 157 199 234 272 419 441 508 526 530 532 0
1 605 658 715 731 823 840 844 881 956 0
1  0
1 227 253 297 395 444 454 461 528 563 649 826 0
1  0
1  0
1 22 61 68 91 155 238 299 368 449 462 532 0
1 663 681 806 861 887 930 0
1  0
1 76 207 211 235 244 245 300 442 486 513 515 0
1 594 623 665 674 776 786 814 872 878 890 898 0
1  0
1 108 192 304 355 446 471 562 644 688 693 743 0
1  0
1 46 63 93 94 273 279 288 363 364 379 416 0
1 559 629 818 853 855 982 0
1  0
1 179 251 449 507 513 524 580 629 675 753 769 0
1 806 807 835 854 886 978 0
1  0
1 12 47 68 101 184 273 418 636 649 726 754 0
1 880 900 905 968 0
1  0
1 252 306 322 578 619 640 646 724 905 915 956 0
1 990 0
1  0
1 34 75 101 150 172 210 236 346 418 549 558 0
1 595 832 840 860 0
1  0
1 11 220 320 372 386 391 393 510 519 531 586 0
1 642 649 794 860 904 0
1  0
1 67 79 86 98 108 145 201 344 359 380 422 0
1 497 592 631 650 723 899 900 0
1  0
1 334 372 431 434 544 583 636 685 695 730 819 0
1 891 893 995 996 0
1  0
1 188 200 339 347 370 421 441 463 486 499 508 0
1 558 595 644 687 722 813 829 0
1  0
1 50 89 101 138 183 192 241 245 289 303 363 0
1 516 530 562 686 696 733 760 806 824 826 841 0
1 921 960 997 0
1  0
1 102 124 254 309 354 378 435 469 487 583 605 0
1 651 686 949 0
1  0
1 118 131 147 209 241 285 377 434 519 537 633 0
1 753 888 923 931 947 0
1  0
1 132 162 223 231 356 361 417 485 489 497 572 0
1 775 863 893 951 0
